0 4959
2401 4849
4802 4755
7203 4661
9604 4586
12005 4510
14406 4461
16807 4406
19208 4369
21609 4330
24010 4296
26411 4246
28812 4211
31213 4193
33614 4184
36015 4166
38416 4145
40817 4132
43218 4128
